45.26 4.24
45.45 4.51
45.1 5.43
47.19 5.01
48.41 6.12
48.35 7.45
49.36 6.09
50.38 5.34
50.5 4.2
51.13 4.25
51.26 5.28
50.47 6.05
50.44 7.05
50.56 6.59
51.12 6.47
51.17 7.17
51.28 7.01
51.28 7.13
51.31 7.28
51.19 9.29
50.58 11.01
51.29 11.58
51.19 12.2
50.5 12.55
51.03 13.44
49.14 6.59
50.07 8.4
49.25 8.43
49.48 9.56
49.27 11.04
49.03 8.24
48.46 9.11
49.01 12.06
48.08 11.34
46.12 6.09
46.31 6.38
46.57 7.26
47.33 7.35
47.23 8.32
47.16 11.24
47.48 13.02
48.18 14.18
45.28 9.12
45.27 11.0
45.27 12.21
45.4 13.46
49.45 13.23
50.05 14.26
46.03 14.31
45.2 14.27
